c Graph Colouring to DIMACS
p cnf 15 56
3 2 1 0
-1 -2 0
-1 -3 0
-2 -3 0
-1 -4 0
-2 -5 0
-3 -6 0
-1 -10 0
-2 -11 0
-3 -12 0
6 5 4 0
-4 -5 0
-4 -6 0
-5 -6 0
-4 -1 0
-5 -2 0
-6 -3 0
-4 -7 0
-5 -8 0
-6 -9 0
-4 -10 0
-5 -11 0
-6 -12 0
9 8 7 0
-7 -8 0
-7 -9 0
-8 -9 0
-7 -4 0
-8 -5 0
-9 -6 0
-7 -13 0
-8 -14 0
-9 -15 0
12 11 10 0
-10 -11 0
-10 -12 0
-11 -12 0
-10 -1 0
-11 -2 0
-12 -3 0
-10 -4 0
-11 -5 0
-12 -6 0
-10 -13 0
-11 -14 0
-12 -15 0
15 14 13 0
-13 -14 0
-13 -15 0
-14 -15 0
-13 -7 0
-14 -8 0
-15 -9 0
-13 -10 0
-14 -11 0
-15 -12 0
